\* Runway Optimization *\
Minimize
Total_runway_time_used: 77 Variables_A310__A310 + 77 Variables_A310__B752
 + 77 Variables_A310__B77W + 65 Variables_A310__T_A310
 + 130 Variables_A310__T_A310__A310 + 130 Variables_A310__T_A310__B752
 + 130 Variables_A310__T_A310__B77W + 195 Variables_A310__T_A310__T_A310__A310
 + 195 Variables_A310__T_A310__T_A310__B752
 + 195 Variables_A310__T_A310__T_A310__B77W
 + 195 Variables_A310__T_A310__T_B752__A310
 + 195 Variables_A310__T_A310__T_B752__B752
 + 195 Variables_A310__T_A310__T_B752__B77W
 + 195 Variables_A310__T_A310__T_B77W__A310
 + 195 Variables_A310__T_A310__T_B77W__B752
 + 195 Variables_A310__T_A310__T_B77W__B77W + 65 Variables_A310__T_B752
 + 130 Variables_A310__T_B752__A310 + 130 Variables_A310__T_B752__B752
 + 130 Variables_A310__T_B752__B77W + 195 Variables_A310__T_B752__T_A310__A310
 + 195 Variables_A310__T_B752__T_A310__B752
 + 195 Variables_A310__T_B752__T_A310__B77W
 + 195 Variables_A310__T_B752__T_B752__A310
 + 195 Variables_A310__T_B752__T_B752__B752
 + 195 Variables_A310__T_B752__T_B752__B77W
 + 195 Variables_A310__T_B752__T_B77W__A310
 + 195 Variables_A310__T_B752__T_B77W__B752
 + 195 Variables_A310__T_B752__T_B77W__B77W + 65 Variables_A310__T_B77W
 + 130 Variables_A310__T_B77W__A310 + 130 Variables_A310__T_B77W__B752
 + 130 Variables_A310__T_B77W__B77W + 195 Variables_A310__T_B77W__T_A310__A310
 + 195 Variables_A310__T_B77W__T_A310__B752
 + 195 Variables_A310__T_B77W__T_A310__B77W
 + 195 Variables_A310__T_B77W__T_B752__A310
 + 195 Variables_A310__T_B77W__T_B752__B752
 + 195 Variables_A310__T_B77W__T_B752__B77W
 + 195 Variables_A310__T_B77W__T_B77W__A310
 + 195 Variables_A310__T_B77W__T_B77W__B752
 + 195 Variables_A310__T_B77W__T_B77W__B77W + 77 Variables_B752__A310
 + 77 Variables_B752__B752 + 77 Variables_B752__B77W
 + 65 Variables_B752__T_A310 + 130 Variables_B752__T_A310__A310
 + 130 Variables_B752__T_A310__B752 + 130 Variables_B752__T_A310__B77W
 + 195 Variables_B752__T_A310__T_A310__A310
 + 195 Variables_B752__T_A310__T_A310__B752
 + 195 Variables_B752__T_A310__T_A310__B77W
 + 195 Variables_B752__T_A310__T_B752__A310
 + 195 Variables_B752__T_A310__T_B752__B752
 + 195 Variables_B752__T_A310__T_B752__B77W
 + 195 Variables_B752__T_A310__T_B77W__A310
 + 195 Variables_B752__T_A310__T_B77W__B752
 + 195 Variables_B752__T_A310__T_B77W__B77W + 65 Variables_B752__T_B752
 + 130 Variables_B752__T_B752__A310 + 130 Variables_B752__T_B752__B752
 + 130 Variables_B752__T_B752__B77W + 195 Variables_B752__T_B752__T_A310__A310
 + 195 Variables_B752__T_B752__T_A310__B752
 + 195 Variables_B752__T_B752__T_A310__B77W
 + 195 Variables_B752__T_B752__T_B752__A310
 + 195 Variables_B752__T_B752__T_B752__B752
 + 195 Variables_B752__T_B752__T_B752__B77W
 + 195 Variables_B752__T_B752__T_B77W__A310
 + 195 Variables_B752__T_B752__T_B77W__B752
 + 195 Variables_B752__T_B752__T_B77W__B77W + 65 Variables_B752__T_B77W
 + 130 Variables_B752__T_B77W__A310 + 130 Variables_B752__T_B77W__B752
 + 130 Variables_B752__T_B77W__B77W + 195 Variables_B752__T_B77W__T_A310__A310
 + 195 Variables_B752__T_B77W__T_A310__B752
 + 195 Variables_B752__T_B77W__T_A310__B77W
 + 195 Variables_B752__T_B77W__T_B752__A310
 + 195 Variables_B752__T_B77W__T_B752__B752
 + 195 Variables_B752__T_B77W__T_B752__B77W
 + 195 Variables_B752__T_B77W__T_B77W__A310
 + 195 Variables_B752__T_B77W__T_B77W__B752
 + 195 Variables_B752__T_B77W__T_B77W__B77W + 77 Variables_B77W__A310
 + 77 Variables_B77W__B752 + 77 Variables_B77W__B77W
 + 65 Variables_B77W__T_A310 + 130 Variables_B77W__T_A310__A310
 + 130 Variables_B77W__T_A310__B752 + 130 Variables_B77W__T_A310__B77W
 + 195 Variables_B77W__T_A310__T_A310__A310
 + 195 Variables_B77W__T_A310__T_A310__B752
 + 195 Variables_B77W__T_A310__T_A310__B77W
 + 195 Variables_B77W__T_A310__T_B752__A310
 + 195 Variables_B77W__T_A310__T_B752__B752
 + 195 Variables_B77W__T_A310__T_B752__B77W
 + 195 Variables_B77W__T_A310__T_B77W__A310
 + 195 Variables_B77W__T_A310__T_B77W__B752
 + 195 Variables_B77W__T_A310__T_B77W__B77W + 65 Variables_B77W__T_B752
 + 130 Variables_B77W__T_B752__A310 + 130 Variables_B77W__T_B752__B752
 + 130 Variables_B77W__T_B752__B77W + 195 Variables_B77W__T_B752__T_A310__A310
 + 195 Variables_B77W__T_B752__T_A310__B752
 + 195 Variables_B77W__T_B752__T_A310__B77W
 + 195 Variables_B77W__T_B752__T_B752__A310
 + 195 Variables_B77W__T_B752__T_B752__B752
 + 195 Variables_B77W__T_B752__T_B752__B77W
 + 195 Variables_B77W__T_B752__T_B77W__A310
 + 195 Variables_B77W__T_B752__T_B77W__B752
 + 195 Variables_B77W__T_B752__T_B77W__B77W + 65 Variables_B77W__T_B77W
 + 130 Variables_B77W__T_B77W__A310 + 130 Variables_B77W__T_B77W__B752
 + 130 Variables_B77W__T_B77W__B77W + 195 Variables_B77W__T_B77W__T_A310__A310
 + 195 Variables_B77W__T_B77W__T_A310__B752
 + 195 Variables_B77W__T_B77W__T_A310__B77W
 + 195 Variables_B77W__T_B77W__T_B752__A310
 + 195 Variables_B77W__T_B77W__T_B752__B752
 + 195 Variables_B77W__T_B77W__T_B752__B77W
 + 195 Variables_B77W__T_B77W__T_B77W__A310
 + 195 Variables_B77W__T_B77W__T_B77W__B752
 + 195 Variables_B77W__T_B77W__T_B77W__B77W + 65 Variables_T_A310__T_A310
 + 65 Variables_T_A310__T_B752 + 65 Variables_T_A310__T_B77W
 + 65 Variables_T_B752__T_A310 + 65 Variables_T_B752__T_B752
 + 65 Variables_T_B752__T_B77W + 65 Variables_T_B77W__T_A310
 + 65 Variables_T_B77W__T_B752 + 65 Variables_T_B77W__T_B77W
Subject To
Number_of_A310_landed: Variables_0__A310 + Variables_A310__A310
 + Variables_A310__T_A310__A310 + Variables_A310__T_A310__T_A310__A310
 + Variables_A310__T_A310__T_B752__A310 + Variables_A310__T_A310__T_B77W__A310
 + Variables_A310__T_B752__A310 + Variables_A310__T_B752__T_A310__A310
 + Variables_A310__T_B752__T_B752__A310 + Variables_A310__T_B752__T_B77W__A310
 + Variables_A310__T_B77W__A310 + Variables_A310__T_B77W__T_A310__A310
 + Variables_A310__T_B77W__T_B752__A310 + Variables_A310__T_B77W__T_B77W__A310
 + Variables_B752__A310 + Variables_B752__T_A310__A310
 + Variables_B752__T_A310__T_A310__A310 + Variables_B752__T_A310__T_B752__A310
 + Variables_B752__T_A310__T_B77W__A310 + Variables_B752__T_B752__A310
 + Variables_B752__T_B752__T_A310__A310 + Variables_B752__T_B752__T_B752__A310
 + Variables_B752__T_B752__T_B77W__A310 + Variables_B752__T_B77W__A310
 + Variables_B752__T_B77W__T_A310__A310 + Variables_B752__T_B77W__T_B752__A310
 + Variables_B752__T_B77W__T_B77W__A310 + Variables_B77W__A310
 + Variables_B77W__T_A310__A310 + Variables_B77W__T_A310__T_A310__A310
 + Variables_B77W__T_A310__T_B752__A310 + Variables_B77W__T_A310__T_B77W__A310
 + Variables_B77W__T_B752__A310 + Variables_B77W__T_B752__T_A310__A310
 + Variables_B77W__T_B752__T_B752__A310 + Variables_B77W__T_B752__T_B77W__A310
 + Variables_B77W__T_B77W__A310 + Variables_B77W__T_B77W__T_A310__A310
 + Variables_B77W__T_B77W__T_B752__A310 + Variables_B77W__T_B77W__T_B77W__A310
 = 4
Number_of_B752_landed: Variables_0__B752 + Variables_A310__B752
 + Variables_A310__T_A310__B752 + Variables_A310__T_A310__T_A310__B752
 + Variables_A310__T_A310__T_B752__B752 + Variables_A310__T_A310__T_B77W__B752
 + Variables_A310__T_B752__B752 + Variables_A310__T_B752__T_A310__B752
 + Variables_A310__T_B752__T_B752__B752 + Variables_A310__T_B752__T_B77W__B752
 + Variables_A310__T_B77W__B752 + Variables_A310__T_B77W__T_A310__B752
 + Variables_A310__T_B77W__T_B752__B752 + Variables_A310__T_B77W__T_B77W__B752
 + Variables_B752__B752 + Variables_B752__T_A310__B752
 + Variables_B752__T_A310__T_A310__B752 + Variables_B752__T_A310__T_B752__B752
 + Variables_B752__T_A310__T_B77W__B752 + Variables_B752__T_B752__B752
 + Variables_B752__T_B752__T_A310__B752 + Variables_B752__T_B752__T_B752__B752
 + Variables_B752__T_B752__T_B77W__B752 + Variables_B752__T_B77W__B752
 + Variables_B752__T_B77W__T_A310__B752 + Variables_B752__T_B77W__T_B752__B752
 + Variables_B752__T_B77W__T_B77W__B752 + Variables_B77W__B752
 + Variables_B77W__T_A310__B752 + Variables_B77W__T_A310__T_A310__B752
 + Variables_B77W__T_A310__T_B752__B752 + Variables_B77W__T_A310__T_B77W__B752
 + Variables_B77W__T_B752__B752 + Variables_B77W__T_B752__T_A310__B752
 + Variables_B77W__T_B752__T_B752__B752 + Variables_B77W__T_B752__T_B77W__B752
 + Variables_B77W__T_B77W__B752 + Variables_B77W__T_B77W__T_A310__B752
 + Variables_B77W__T_B77W__T_B752__B752 + Variables_B77W__T_B77W__T_B77W__B752
 = 3
Number_of_B77W_landed: Variables_0__B77W + Variables_A310__B77W
 + Variables_A310__T_A310__B77W + Variables_A310__T_A310__T_A310__B77W
 + Variables_A310__T_A310__T_B752__B77W + Variables_A310__T_A310__T_B77W__B77W
 + Variables_A310__T_B752__B77W + Variables_A310__T_B752__T_A310__B77W
 + Variables_A310__T_B752__T_B752__B77W + Variables_A310__T_B752__T_B77W__B77W
 + Variables_A310__T_B77W__B77W + Variables_A310__T_B77W__T_A310__B77W
 + Variables_A310__T_B77W__T_B752__B77W + Variables_A310__T_B77W__T_B77W__B77W
 + Variables_B752__B77W + Variables_B752__T_A310__B77W
 + Variables_B752__T_A310__T_A310__B77W + Variables_B752__T_A310__T_B752__B77W
 + Variables_B752__T_A310__T_B77W__B77W + Variables_B752__T_B752__B77W
 + Variables_B752__T_B752__T_A310__B77W + Variables_B752__T_B752__T_B752__B77W
 + Variables_B752__T_B752__T_B77W__B77W + Variables_B752__T_B77W__B77W
 + Variables_B752__T_B77W__T_A310__B77W + Variables_B752__T_B77W__T_B752__B77W
 + Variables_B752__T_B77W__T_B77W__B77W + Variables_B77W__B77W
 + Variables_B77W__T_A310__B77W + Variables_B77W__T_A310__T_A310__B77W
 + Variables_B77W__T_A310__T_B752__B77W + Variables_B77W__T_A310__T_B77W__B77W
 + Variables_B77W__T_B752__B77W + Variables_B77W__T_B752__T_A310__B77W
 + Variables_B77W__T_B752__T_B752__B77W + Variables_B77W__T_B752__T_B77W__B77W
 + Variables_B77W__T_B77W__B77W + Variables_B77W__T_B77W__T_A310__B77W
 + Variables_B77W__T_B77W__T_B752__B77W + Variables_B77W__T_B77W__T_B77W__B77W
 = 2
Number_of_take_offs_of_A310: Variables_A310__T_A310
 + Variables_A310__T_A310__A310 + Variables_A310__T_A310__B752
 + Variables_A310__T_A310__B77W + 2 Variables_A310__T_A310__T_A310__A310
 + 2 Variables_A310__T_A310__T_A310__B752
 + 2 Variables_A310__T_A310__T_A310__B77W
 + Variables_A310__T_A310__T_B752__A310 + Variables_A310__T_A310__T_B752__B752
 + Variables_A310__T_A310__T_B752__B77W + Variables_A310__T_A310__T_B77W__A310
 + Variables_A310__T_A310__T_B77W__B752 + Variables_A310__T_A310__T_B77W__B77W
 + Variables_A310__T_B752__T_A310__A310 + Variables_A310__T_B752__T_A310__B752
 + Variables_A310__T_B752__T_A310__B77W + Variables_A310__T_B77W__T_A310__A310
 + Variables_A310__T_B77W__T_A310__B752 + Variables_A310__T_B77W__T_A310__B77W
 + Variables_B752__T_A310 + Variables_B752__T_A310__A310
 + Variables_B752__T_A310__B752 + Variables_B752__T_A310__B77W
 + 2 Variables_B752__T_A310__T_A310__A310
 + 2 Variables_B752__T_A310__T_A310__B752
 + 2 Variables_B752__T_A310__T_A310__B77W
 + Variables_B752__T_A310__T_B752__A310 + Variables_B752__T_A310__T_B752__B752
 + Variables_B752__T_A310__T_B752__B77W + Variables_B752__T_A310__T_B77W__A310
 + Variables_B752__T_A310__T_B77W__B752 + Variables_B752__T_A310__T_B77W__B77W
 + Variables_B752__T_B752__T_A310__A310 + Variables_B752__T_B752__T_A310__B752
 + Variables_B752__T_B752__T_A310__B77W + Variables_B752__T_B77W__T_A310__A310
 + Variables_B752__T_B77W__T_A310__B752 + Variables_B752__T_B77W__T_A310__B77W
 + Variables_B77W__T_A310 + Variables_B77W__T_A310__A310
 + Variables_B77W__T_A310__B752 + Variables_B77W__T_A310__B77W
 + 2 Variables_B77W__T_A310__T_A310__A310
 + 2 Variables_B77W__T_A310__T_A310__B752
 + 2 Variables_B77W__T_A310__T_A310__B77W
 + Variables_B77W__T_A310__T_B752__A310 + Variables_B77W__T_A310__T_B752__B752
 + Variables_B77W__T_A310__T_B752__B77W + Variables_B77W__T_A310__T_B77W__A310
 + Variables_B77W__T_A310__T_B77W__B752 + Variables_B77W__T_A310__T_B77W__B77W
 + Variables_B77W__T_B752__T_A310__A310 + Variables_B77W__T_B752__T_A310__B752
 + Variables_B77W__T_B752__T_A310__B77W + Variables_B77W__T_B77W__T_A310__A310
 + Variables_B77W__T_B77W__T_A310__B752 + Variables_B77W__T_B77W__T_A310__B77W
 + Variables_T_A310__T_A310 + Variables_T_B752__T_A310
 + Variables_T_B77W__T_A310 = 3
Number_of_take_offs_of_B752: Variables_A310__T_A310__T_B752__A310
 + Variables_A310__T_A310__T_B752__B752 + Variables_A310__T_A310__T_B752__B77W
 + Variables_A310__T_B752 + Variables_A310__T_B752__A310
 + Variables_A310__T_B752__B752 + Variables_A310__T_B752__B77W
 + Variables_A310__T_B752__T_A310__A310 + Variables_A310__T_B752__T_A310__B752
 + Variables_A310__T_B752__T_A310__B77W
 + 2 Variables_A310__T_B752__T_B752__A310
 + 2 Variables_A310__T_B752__T_B752__B752
 + 2 Variables_A310__T_B752__T_B752__B77W
 + Variables_A310__T_B752__T_B77W__A310 + Variables_A310__T_B752__T_B77W__B752
 + Variables_A310__T_B752__T_B77W__B77W + Variables_A310__T_B77W__T_B752__A310
 + Variables_A310__T_B77W__T_B752__B752 + Variables_A310__T_B77W__T_B752__B77W
 + Variables_B752__T_A310__T_B752__A310 + Variables_B752__T_A310__T_B752__B752
 + Variables_B752__T_A310__T_B752__B77W + Variables_B752__T_B752
 + Variables_B752__T_B752__A310 + Variables_B752__T_B752__B752
 + Variables_B752__T_B752__B77W + Variables_B752__T_B752__T_A310__A310
 + Variables_B752__T_B752__T_A310__B752 + Variables_B752__T_B752__T_A310__B77W
 + 2 Variables_B752__T_B752__T_B752__A310
 + 2 Variables_B752__T_B752__T_B752__B752
 + 2 Variables_B752__T_B752__T_B752__B77W
 + Variables_B752__T_B752__T_B77W__A310 + Variables_B752__T_B752__T_B77W__B752
 + Variables_B752__T_B752__T_B77W__B77W + Variables_B752__T_B77W__T_B752__A310
 + Variables_B752__T_B77W__T_B752__B752 + Variables_B752__T_B77W__T_B752__B77W
 + Variables_B77W__T_A310__T_B752__A310 + Variables_B77W__T_A310__T_B752__B752
 + Variables_B77W__T_A310__T_B752__B77W + Variables_B77W__T_B752
 + Variables_B77W__T_B752__A310 + Variables_B77W__T_B752__B752
 + Variables_B77W__T_B752__B77W + Variables_B77W__T_B752__T_A310__A310
 + Variables_B77W__T_B752__T_A310__B752 + Variables_B77W__T_B752__T_A310__B77W
 + 2 Variables_B77W__T_B752__T_B752__A310
 + 2 Variables_B77W__T_B752__T_B752__B752
 + 2 Variables_B77W__T_B752__T_B752__B77W
 + Variables_B77W__T_B752__T_B77W__A310 + Variables_B77W__T_B752__T_B77W__B752
 + Variables_B77W__T_B752__T_B77W__B77W + Variables_B77W__T_B77W__T_B752__A310
 + Variables_B77W__T_B77W__T_B752__B752 + Variables_B77W__T_B77W__T_B752__B77W
 + Variables_T_A310__T_B752 + Variables_T_B752__T_B752
 + Variables_T_B77W__T_B752 = 3
Number_of_take_offs_of_B77W: Variables_A310__T_A310__T_B77W__A310
 + Variables_A310__T_A310__T_B77W__B752 + Variables_A310__T_A310__T_B77W__B77W
 + Variables_A310__T_B752__T_B77W__A310 + Variables_A310__T_B752__T_B77W__B752
 + Variables_A310__T_B752__T_B77W__B77W + Variables_A310__T_B77W
 + Variables_A310__T_B77W__A310 + Variables_A310__T_B77W__B752
 + Variables_A310__T_B77W__B77W + Variables_A310__T_B77W__T_A310__A310
 + Variables_A310__T_B77W__T_A310__B752 + Variables_A310__T_B77W__T_A310__B77W
 + Variables_A310__T_B77W__T_B752__A310 + Variables_A310__T_B77W__T_B752__B752
 + Variables_A310__T_B77W__T_B752__B77W
 + 2 Variables_A310__T_B77W__T_B77W__A310
 + 2 Variables_A310__T_B77W__T_B77W__B752
 + 2 Variables_A310__T_B77W__T_B77W__B77W
 + Variables_B752__T_A310__T_B77W__A310 + Variables_B752__T_A310__T_B77W__B752
 + Variables_B752__T_A310__T_B77W__B77W + Variables_B752__T_B752__T_B77W__A310
 + Variables_B752__T_B752__T_B77W__B752 + Variables_B752__T_B752__T_B77W__B77W
 + Variables_B752__T_B77W + Variables_B752__T_B77W__A310
 + Variables_B752__T_B77W__B752 + Variables_B752__T_B77W__B77W
 + Variables_B752__T_B77W__T_A310__A310 + Variables_B752__T_B77W__T_A310__B752
 + Variables_B752__T_B77W__T_A310__B77W + Variables_B752__T_B77W__T_B752__A310
 + Variables_B752__T_B77W__T_B752__B752 + Variables_B752__T_B77W__T_B752__B77W
 + 2 Variables_B752__T_B77W__T_B77W__A310
 + 2 Variables_B752__T_B77W__T_B77W__B752
 + 2 Variables_B752__T_B77W__T_B77W__B77W
 + Variables_B77W__T_A310__T_B77W__A310 + Variables_B77W__T_A310__T_B77W__B752
 + Variables_B77W__T_A310__T_B77W__B77W + Variables_B77W__T_B752__T_B77W__A310
 + Variables_B77W__T_B752__T_B77W__B752 + Variables_B77W__T_B752__T_B77W__B77W
 + Variables_B77W__T_B77W + Variables_B77W__T_B77W__A310
 + Variables_B77W__T_B77W__B752 + Variables_B77W__T_B77W__B77W
 + Variables_B77W__T_B77W__T_A310__A310 + Variables_B77W__T_B77W__T_A310__B752
 + Variables_B77W__T_B77W__T_A310__B77W + Variables_B77W__T_B77W__T_B752__A310
 + Variables_B77W__T_B77W__T_B752__B752 + Variables_B77W__T_B77W__T_B752__B77W
 + 2 Variables_B77W__T_B77W__T_B77W__A310
 + 2 Variables_B77W__T_B77W__T_B77W__B752
 + 2 Variables_B77W__T_B77W__T_B77W__B77W + Variables_T_A310__T_B77W
 + Variables_T_B752__T_B77W + Variables_T_B77W__T_B77W = 2
_C1: Variables_0__A310 = 1
head_tails_constraint_of_A310: Variables_0__A310 - Variables_A310__0
 + 0 Variables_A310__A310 - Variables_A310__B752 - Variables_A310__B77W
 - Variables_A310__T_A310 + 0 Variables_A310__T_A310__A310
 - Variables_A310__T_A310__B752 - Variables_A310__T_A310__B77W
 + 0 Variables_A310__T_A310__T_A310__A310
 - Variables_A310__T_A310__T_A310__B752 - Variables_A310__T_A310__T_A310__B77W
 + 0 Variables_A310__T_A310__T_B752__A310
 - Variables_A310__T_A310__T_B752__B752 - Variables_A310__T_A310__T_B752__B77W
 + 0 Variables_A310__T_A310__T_B77W__A310
 - Variables_A310__T_A310__T_B77W__B752 - Variables_A310__T_A310__T_B77W__B77W
 - Variables_A310__T_B752 + 0 Variables_A310__T_B752__A310
 - Variables_A310__T_B752__B752 - Variables_A310__T_B752__B77W
 + 0 Variables_A310__T_B752__T_A310__A310
 - Variables_A310__T_B752__T_A310__B752 - Variables_A310__T_B752__T_A310__B77W
 + 0 Variables_A310__T_B752__T_B752__A310
 - Variables_A310__T_B752__T_B752__B752 - Variables_A310__T_B752__T_B752__B77W
 + 0 Variables_A310__T_B752__T_B77W__A310
 - Variables_A310__T_B752__T_B77W__B752 - Variables_A310__T_B752__T_B77W__B77W
 - Variables_A310__T_B77W + 0 Variables_A310__T_B77W__A310
 - Variables_A310__T_B77W__B752 - Variables_A310__T_B77W__B77W
 + 0 Variables_A310__T_B77W__T_A310__A310
 - Variables_A310__T_B77W__T_A310__B752 - Variables_A310__T_B77W__T_A310__B77W
 + 0 Variables_A310__T_B77W__T_B752__A310
 - Variables_A310__T_B77W__T_B752__B752 - Variables_A310__T_B77W__T_B752__B77W
 + 0 Variables_A310__T_B77W__T_B77W__A310
 - Variables_A310__T_B77W__T_B77W__B752 - Variables_A310__T_B77W__T_B77W__B77W
 + Variables_B752__A310 + Variables_B752__T_A310__A310
 + Variables_B752__T_A310__T_A310__A310 + Variables_B752__T_A310__T_B752__A310
 + Variables_B752__T_A310__T_B77W__A310 + Variables_B752__T_B752__A310
 + Variables_B752__T_B752__T_A310__A310 + Variables_B752__T_B752__T_B752__A310
 + Variables_B752__T_B752__T_B77W__A310 + Variables_B752__T_B77W__A310
 + Variables_B752__T_B77W__T_A310__A310 + Variables_B752__T_B77W__T_B752__A310
 + Variables_B752__T_B77W__T_B77W__A310 + Variables_B77W__A310
 + Variables_B77W__T_A310__A310 + Variables_B77W__T_A310__T_A310__A310
 + Variables_B77W__T_A310__T_B752__A310 + Variables_B77W__T_A310__T_B77W__A310
 + Variables_B77W__T_B752__A310 + Variables_B77W__T_B752__T_A310__A310
 + Variables_B77W__T_B752__T_B752__A310 + Variables_B77W__T_B752__T_B77W__A310
 + Variables_B77W__T_B77W__A310 + Variables_B77W__T_B77W__T_A310__A310
 + Variables_B77W__T_B77W__T_B752__A310 + Variables_B77W__T_B77W__T_B77W__A310
 = 0
head_tails_constraint_of_B752: Variables_0__B752 + Variables_A310__B752
 + Variables_A310__T_A310__B752 + Variables_A310__T_A310__T_A310__B752
 + Variables_A310__T_A310__T_B752__B752 + Variables_A310__T_A310__T_B77W__B752
 + Variables_A310__T_B752__B752 + Variables_A310__T_B752__T_A310__B752
 + Variables_A310__T_B752__T_B752__B752 + Variables_A310__T_B752__T_B77W__B752
 + Variables_A310__T_B77W__B752 + Variables_A310__T_B77W__T_A310__B752
 + Variables_A310__T_B77W__T_B752__B752 + Variables_A310__T_B77W__T_B77W__B752
 - Variables_B752__0 - Variables_B752__A310 + 0 Variables_B752__B752
 - Variables_B752__B77W - Variables_B752__T_A310
 - Variables_B752__T_A310__A310 + 0 Variables_B752__T_A310__B752
 - Variables_B752__T_A310__B77W - Variables_B752__T_A310__T_A310__A310
 + 0 Variables_B752__T_A310__T_A310__B752
 - Variables_B752__T_A310__T_A310__B77W - Variables_B752__T_A310__T_B752__A310
 + 0 Variables_B752__T_A310__T_B752__B752
 - Variables_B752__T_A310__T_B752__B77W - Variables_B752__T_A310__T_B77W__A310
 + 0 Variables_B752__T_A310__T_B77W__B752
 - Variables_B752__T_A310__T_B77W__B77W - Variables_B752__T_B752
 - Variables_B752__T_B752__A310 + 0 Variables_B752__T_B752__B752
 - Variables_B752__T_B752__B77W - Variables_B752__T_B752__T_A310__A310
 + 0 Variables_B752__T_B752__T_A310__B752
 - Variables_B752__T_B752__T_A310__B77W - Variables_B752__T_B752__T_B752__A310
 + 0 Variables_B752__T_B752__T_B752__B752
 - Variables_B752__T_B752__T_B752__B77W - Variables_B752__T_B752__T_B77W__A310
 + 0 Variables_B752__T_B752__T_B77W__B752
 - Variables_B752__T_B752__T_B77W__B77W - Variables_B752__T_B77W
 - Variables_B752__T_B77W__A310 + 0 Variables_B752__T_B77W__B752
 - Variables_B752__T_B77W__B77W - Variables_B752__T_B77W__T_A310__A310
 + 0 Variables_B752__T_B77W__T_A310__B752
 - Variables_B752__T_B77W__T_A310__B77W - Variables_B752__T_B77W__T_B752__A310
 + 0 Variables_B752__T_B77W__T_B752__B752
 - Variables_B752__T_B77W__T_B752__B77W - Variables_B752__T_B77W__T_B77W__A310
 + 0 Variables_B752__T_B77W__T_B77W__B752
 - Variables_B752__T_B77W__T_B77W__B77W + Variables_B77W__B752
 + Variables_B77W__T_A310__B752 + Variables_B77W__T_A310__T_A310__B752
 + Variables_B77W__T_A310__T_B752__B752 + Variables_B77W__T_A310__T_B77W__B752
 + Variables_B77W__T_B752__B752 + Variables_B77W__T_B752__T_A310__B752
 + Variables_B77W__T_B752__T_B752__B752 + Variables_B77W__T_B752__T_B77W__B752
 + Variables_B77W__T_B77W__B752 + Variables_B77W__T_B77W__T_A310__B752
 + Variables_B77W__T_B77W__T_B752__B752 + Variables_B77W__T_B77W__T_B77W__B752
 = 0
head_tails_constraint_of_B77W: Variables_0__B77W + Variables_A310__B77W
 + Variables_A310__T_A310__B77W + Variables_A310__T_A310__T_A310__B77W
 + Variables_A310__T_A310__T_B752__B77W + Variables_A310__T_A310__T_B77W__B77W
 + Variables_A310__T_B752__B77W + Variables_A310__T_B752__T_A310__B77W
 + Variables_A310__T_B752__T_B752__B77W + Variables_A310__T_B752__T_B77W__B77W
 + Variables_A310__T_B77W__B77W + Variables_A310__T_B77W__T_A310__B77W
 + Variables_A310__T_B77W__T_B752__B77W + Variables_A310__T_B77W__T_B77W__B77W
 + Variables_B752__B77W + Variables_B752__T_A310__B77W
 + Variables_B752__T_A310__T_A310__B77W + Variables_B752__T_A310__T_B752__B77W
 + Variables_B752__T_A310__T_B77W__B77W + Variables_B752__T_B752__B77W
 + Variables_B752__T_B752__T_A310__B77W + Variables_B752__T_B752__T_B752__B77W
 + Variables_B752__T_B752__T_B77W__B77W + Variables_B752__T_B77W__B77W
 + Variables_B752__T_B77W__T_A310__B77W + Variables_B752__T_B77W__T_B752__B77W
 + Variables_B752__T_B77W__T_B77W__B77W - Variables_B77W__0
 - Variables_B77W__A310 - Variables_B77W__B752 + 0 Variables_B77W__B77W
 - Variables_B77W__T_A310 - Variables_B77W__T_A310__A310
 - Variables_B77W__T_A310__B752 + 0 Variables_B77W__T_A310__B77W
 - Variables_B77W__T_A310__T_A310__A310 - Variables_B77W__T_A310__T_A310__B752
 + 0 Variables_B77W__T_A310__T_A310__B77W
 - Variables_B77W__T_A310__T_B752__A310 - Variables_B77W__T_A310__T_B752__B752
 + 0 Variables_B77W__T_A310__T_B752__B77W
 - Variables_B77W__T_A310__T_B77W__A310 - Variables_B77W__T_A310__T_B77W__B752
 + 0 Variables_B77W__T_A310__T_B77W__B77W - Variables_B77W__T_B752
 - Variables_B77W__T_B752__A310 - Variables_B77W__T_B752__B752
 + 0 Variables_B77W__T_B752__B77W - Variables_B77W__T_B752__T_A310__A310
 - Variables_B77W__T_B752__T_A310__B752
 + 0 Variables_B77W__T_B752__T_A310__B77W
 - Variables_B77W__T_B752__T_B752__A310 - Variables_B77W__T_B752__T_B752__B752
 + 0 Variables_B77W__T_B752__T_B752__B77W
 - Variables_B77W__T_B752__T_B77W__A310 - Variables_B77W__T_B752__T_B77W__B752
 + 0 Variables_B77W__T_B752__T_B77W__B77W - Variables_B77W__T_B77W
 - Variables_B77W__T_B77W__A310 - Variables_B77W__T_B77W__B752
 + 0 Variables_B77W__T_B77W__B77W - Variables_B77W__T_B77W__T_A310__A310
 - Variables_B77W__T_B77W__T_A310__B752
 + 0 Variables_B77W__T_B77W__T_A310__B77W
 - Variables_B77W__T_B77W__T_B752__A310 - Variables_B77W__T_B77W__T_B752__B752
 + 0 Variables_B77W__T_B77W__T_B752__B77W
 - Variables_B77W__T_B77W__T_B77W__A310 - Variables_B77W__T_B77W__T_B77W__B752
 + 0 Variables_B77W__T_B77W__T_B77W__B77W = 0
last_plane_criterion: Variables_A310__0 + Variables_B752__0
 + Variables_B77W__0 + Variables_T_A310__0 + Variables_T_B752__0
 + Variables_T_B77W__0 = 1
starting_plane_criterion: Variables_0__A310 + Variables_0__B752
 + Variables_0__B77W = 1
switch_to_A310: Variables_0__A310 + Variables_B752__A310
 + Variables_B752__T_A310__A310 + Variables_B752__T_A310__T_A310__A310
 + Variables_B752__T_A310__T_B752__A310 + Variables_B752__T_A310__T_B77W__A310
 + Variables_B752__T_B752__A310 + Variables_B752__T_B752__T_A310__A310
 + Variables_B752__T_B752__T_B752__A310 + Variables_B752__T_B752__T_B77W__A310
 + Variables_B752__T_B77W__A310 + Variables_B752__T_B77W__T_A310__A310
 + Variables_B752__T_B77W__T_B752__A310 + Variables_B752__T_B77W__T_B77W__A310
 + Variables_B77W__A310 + Variables_B77W__T_A310__A310
 + Variables_B77W__T_A310__T_A310__A310 + Variables_B77W__T_A310__T_B752__A310
 + Variables_B77W__T_A310__T_B77W__A310 + Variables_B77W__T_B752__A310
 + Variables_B77W__T_B752__T_A310__A310 + Variables_B77W__T_B752__T_B752__A310
 + Variables_B77W__T_B752__T_B77W__A310 + Variables_B77W__T_B77W__A310
 + Variables_B77W__T_B77W__T_A310__A310 + Variables_B77W__T_B77W__T_B752__A310
 + Variables_B77W__T_B77W__T_B77W__A310 >= 1
switch_to_B752: Variables_0__B752 + Variables_A310__B752
 + Variables_A310__T_A310__B752 + Variables_A310__T_A310__T_A310__B752
 + Variables_A310__T_A310__T_B752__B752 + Variables_A310__T_A310__T_B77W__B752
 + Variables_A310__T_B752__B752 + Variables_A310__T_B752__T_A310__B752
 + Variables_A310__T_B752__T_B752__B752 + Variables_A310__T_B752__T_B77W__B752
 + Variables_A310__T_B77W__B752 + Variables_A310__T_B77W__T_A310__B752
 + Variables_A310__T_B77W__T_B752__B752 + Variables_A310__T_B77W__T_B77W__B752
 + Variables_B77W__B752 + Variables_B77W__T_A310__B752
 + Variables_B77W__T_A310__T_A310__B752 + Variables_B77W__T_A310__T_B752__B752
 + Variables_B77W__T_A310__T_B77W__B752 + Variables_B77W__T_B752__B752
 + Variables_B77W__T_B752__T_A310__B752 + Variables_B77W__T_B752__T_B752__B752
 + Variables_B77W__T_B752__T_B77W__B752 + Variables_B77W__T_B77W__B752
 + Variables_B77W__T_B77W__T_A310__B752 + Variables_B77W__T_B77W__T_B752__B752
 + Variables_B77W__T_B77W__T_B77W__B752 >= 1
switch_to_B77W: Variables_0__B77W + Variables_A310__B77W
 + Variables_A310__T_A310__B77W + Variables_A310__T_A310__T_A310__B77W
 + Variables_A310__T_A310__T_B752__B77W + Variables_A310__T_A310__T_B77W__B77W
 + Variables_A310__T_B752__B77W + Variables_A310__T_B752__T_A310__B77W
 + Variables_A310__T_B752__T_B752__B77W + Variables_A310__T_B752__T_B77W__B77W
 + Variables_A310__T_B77W__B77W + Variables_A310__T_B77W__T_A310__B77W
 + Variables_A310__T_B77W__T_B752__B77W + Variables_A310__T_B77W__T_B77W__B77W
 + Variables_B752__B77W + Variables_B752__T_A310__B77W
 + Variables_B752__T_A310__T_A310__B77W + Variables_B752__T_A310__T_B752__B77W
 + Variables_B752__T_A310__T_B77W__B77W + Variables_B752__T_B752__B77W
 + Variables_B752__T_B752__T_A310__B77W + Variables_B752__T_B752__T_B752__B77W
 + Variables_B752__T_B752__T_B77W__B77W + Variables_B752__T_B77W__B77W
 + Variables_B752__T_B77W__T_A310__B77W + Variables_B752__T_B77W__T_B752__B77W
 + Variables_B752__T_B77W__T_B77W__B77W >= 1
Bounds
0 <= Variables_0__A310
0 <= Variables_0__B752
0 <= Variables_0__B77W
0 <= Variables_A310__0
0 <= Variables_A310__A310
0 <= Variables_A310__B752
0 <= Variables_A310__B77W
0 <= Variables_A310__T_A310
0 <= Variables_A310__T_A310__A310
0 <= Variables_A310__T_A310__B752
0 <= Variables_A310__T_A310__B77W
0 <= Variables_A310__T_A310__T_A310__A310
0 <= Variables_A310__T_A310__T_A310__B752
0 <= Variables_A310__T_A310__T_A310__B77W
0 <= Variables_A310__T_A310__T_B752__A310
0 <= Variables_A310__T_A310__T_B752__B752
0 <= Variables_A310__T_A310__T_B752__B77W
0 <= Variables_A310__T_A310__T_B77W__A310
0 <= Variables_A310__T_A310__T_B77W__B752
0 <= Variables_A310__T_A310__T_B77W__B77W
0 <= Variables_A310__T_B752
0 <= Variables_A310__T_B752__A310
0 <= Variables_A310__T_B752__B752
0 <= Variables_A310__T_B752__B77W
0 <= Variables_A310__T_B752__T_A310__A310
0 <= Variables_A310__T_B752__T_A310__B752
0 <= Variables_A310__T_B752__T_A310__B77W
0 <= Variables_A310__T_B752__T_B752__A310
0 <= Variables_A310__T_B752__T_B752__B752
0 <= Variables_A310__T_B752__T_B752__B77W
0 <= Variables_A310__T_B752__T_B77W__A310
0 <= Variables_A310__T_B752__T_B77W__B752
0 <= Variables_A310__T_B752__T_B77W__B77W
0 <= Variables_A310__T_B77W
0 <= Variables_A310__T_B77W__A310
0 <= Variables_A310__T_B77W__B752
0 <= Variables_A310__T_B77W__B77W
0 <= Variables_A310__T_B77W__T_A310__A310
0 <= Variables_A310__T_B77W__T_A310__B752
0 <= Variables_A310__T_B77W__T_A310__B77W
0 <= Variables_A310__T_B77W__T_B752__A310
0 <= Variables_A310__T_B77W__T_B752__B752
0 <= Variables_A310__T_B77W__T_B752__B77W
0 <= Variables_A310__T_B77W__T_B77W__A310
0 <= Variables_A310__T_B77W__T_B77W__B752
0 <= Variables_A310__T_B77W__T_B77W__B77W
0 <= Variables_B752__0
0 <= Variables_B752__A310
0 <= Variables_B752__B752
0 <= Variables_B752__B77W
0 <= Variables_B752__T_A310
0 <= Variables_B752__T_A310__A310
0 <= Variables_B752__T_A310__B752
0 <= Variables_B752__T_A310__B77W
0 <= Variables_B752__T_A310__T_A310__A310
0 <= Variables_B752__T_A310__T_A310__B752
0 <= Variables_B752__T_A310__T_A310__B77W
0 <= Variables_B752__T_A310__T_B752__A310
0 <= Variables_B752__T_A310__T_B752__B752
0 <= Variables_B752__T_A310__T_B752__B77W
0 <= Variables_B752__T_A310__T_B77W__A310
0 <= Variables_B752__T_A310__T_B77W__B752
0 <= Variables_B752__T_A310__T_B77W__B77W
0 <= Variables_B752__T_B752
0 <= Variables_B752__T_B752__A310
0 <= Variables_B752__T_B752__B752
0 <= Variables_B752__T_B752__B77W
0 <= Variables_B752__T_B752__T_A310__A310
0 <= Variables_B752__T_B752__T_A310__B752
0 <= Variables_B752__T_B752__T_A310__B77W
0 <= Variables_B752__T_B752__T_B752__A310
0 <= Variables_B752__T_B752__T_B752__B752
0 <= Variables_B752__T_B752__T_B752__B77W
0 <= Variables_B752__T_B752__T_B77W__A310
0 <= Variables_B752__T_B752__T_B77W__B752
0 <= Variables_B752__T_B752__T_B77W__B77W
0 <= Variables_B752__T_B77W
0 <= Variables_B752__T_B77W__A310
0 <= Variables_B752__T_B77W__B752
0 <= Variables_B752__T_B77W__B77W
0 <= Variables_B752__T_B77W__T_A310__A310
0 <= Variables_B752__T_B77W__T_A310__B752
0 <= Variables_B752__T_B77W__T_A310__B77W
0 <= Variables_B752__T_B77W__T_B752__A310
0 <= Variables_B752__T_B77W__T_B752__B752
0 <= Variables_B752__T_B77W__T_B752__B77W
0 <= Variables_B752__T_B77W__T_B77W__A310
0 <= Variables_B752__T_B77W__T_B77W__B752
0 <= Variables_B752__T_B77W__T_B77W__B77W
0 <= Variables_B77W__0
0 <= Variables_B77W__A310
0 <= Variables_B77W__B752
0 <= Variables_B77W__B77W
0 <= Variables_B77W__T_A310
0 <= Variables_B77W__T_A310__A310
0 <= Variables_B77W__T_A310__B752
0 <= Variables_B77W__T_A310__B77W
0 <= Variables_B77W__T_A310__T_A310__A310
0 <= Variables_B77W__T_A310__T_A310__B752
0 <= Variables_B77W__T_A310__T_A310__B77W
0 <= Variables_B77W__T_A310__T_B752__A310
0 <= Variables_B77W__T_A310__T_B752__B752
0 <= Variables_B77W__T_A310__T_B752__B77W
0 <= Variables_B77W__T_A310__T_B77W__A310
0 <= Variables_B77W__T_A310__T_B77W__B752
0 <= Variables_B77W__T_A310__T_B77W__B77W
0 <= Variables_B77W__T_B752
0 <= Variables_B77W__T_B752__A310
0 <= Variables_B77W__T_B752__B752
0 <= Variables_B77W__T_B752__B77W
0 <= Variables_B77W__T_B752__T_A310__A310
0 <= Variables_B77W__T_B752__T_A310__B752
0 <= Variables_B77W__T_B752__T_A310__B77W
0 <= Variables_B77W__T_B752__T_B752__A310
0 <= Variables_B77W__T_B752__T_B752__B752
0 <= Variables_B77W__T_B752__T_B752__B77W
0 <= Variables_B77W__T_B752__T_B77W__A310
0 <= Variables_B77W__T_B752__T_B77W__B752
0 <= Variables_B77W__T_B752__T_B77W__B77W
0 <= Variables_B77W__T_B77W
0 <= Variables_B77W__T_B77W__A310
0 <= Variables_B77W__T_B77W__B752
0 <= Variables_B77W__T_B77W__B77W
0 <= Variables_B77W__T_B77W__T_A310__A310
0 <= Variables_B77W__T_B77W__T_A310__B752
0 <= Variables_B77W__T_B77W__T_A310__B77W
0 <= Variables_B77W__T_B77W__T_B752__A310
0 <= Variables_B77W__T_B77W__T_B752__B752
0 <= Variables_B77W__T_B77W__T_B752__B77W
0 <= Variables_B77W__T_B77W__T_B77W__A310
0 <= Variables_B77W__T_B77W__T_B77W__B752
0 <= Variables_B77W__T_B77W__T_B77W__B77W
0 <= Variables_T_A310__0
0 <= Variables_T_A310__T_A310
0 <= Variables_T_A310__T_B752
0 <= Variables_T_A310__T_B77W
0 <= Variables_T_B752__0
0 <= Variables_T_B752__T_A310
0 <= Variables_T_B752__T_B752
0 <= Variables_T_B752__T_B77W
0 <= Variables_T_B77W__0
0 <= Variables_T_B77W__T_A310
0 <= Variables_T_B77W__T_B752
0 <= Variables_T_B77W__T_B77W
Generals
Variables_0__A310
Variables_0__B752
Variables_0__B77W
Variables_A310__0
Variables_A310__A310
Variables_A310__B752
Variables_A310__B77W
Variables_A310__T_A310
Variables_A310__T_A310__A310
Variables_A310__T_A310__B752
Variables_A310__T_A310__B77W
Variables_A310__T_A310__T_A310__A310
Variables_A310__T_A310__T_A310__B752
Variables_A310__T_A310__T_A310__B77W
Variables_A310__T_A310__T_B752__A310
Variables_A310__T_A310__T_B752__B752
Variables_A310__T_A310__T_B752__B77W
Variables_A310__T_A310__T_B77W__A310
Variables_A310__T_A310__T_B77W__B752
Variables_A310__T_A310__T_B77W__B77W
Variables_A310__T_B752
Variables_A310__T_B752__A310
Variables_A310__T_B752__B752
Variables_A310__T_B752__B77W
Variables_A310__T_B752__T_A310__A310
Variables_A310__T_B752__T_A310__B752
Variables_A310__T_B752__T_A310__B77W
Variables_A310__T_B752__T_B752__A310
Variables_A310__T_B752__T_B752__B752
Variables_A310__T_B752__T_B752__B77W
Variables_A310__T_B752__T_B77W__A310
Variables_A310__T_B752__T_B77W__B752
Variables_A310__T_B752__T_B77W__B77W
Variables_A310__T_B77W
Variables_A310__T_B77W__A310
Variables_A310__T_B77W__B752
Variables_A310__T_B77W__B77W
Variables_A310__T_B77W__T_A310__A310
Variables_A310__T_B77W__T_A310__B752
Variables_A310__T_B77W__T_A310__B77W
Variables_A310__T_B77W__T_B752__A310
Variables_A310__T_B77W__T_B752__B752
Variables_A310__T_B77W__T_B752__B77W
Variables_A310__T_B77W__T_B77W__A310
Variables_A310__T_B77W__T_B77W__B752
Variables_A310__T_B77W__T_B77W__B77W
Variables_B752__0
Variables_B752__A310
Variables_B752__B752
Variables_B752__B77W
Variables_B752__T_A310
Variables_B752__T_A310__A310
Variables_B752__T_A310__B752
Variables_B752__T_A310__B77W
Variables_B752__T_A310__T_A310__A310
Variables_B752__T_A310__T_A310__B752
Variables_B752__T_A310__T_A310__B77W
Variables_B752__T_A310__T_B752__A310
Variables_B752__T_A310__T_B752__B752
Variables_B752__T_A310__T_B752__B77W
Variables_B752__T_A310__T_B77W__A310
Variables_B752__T_A310__T_B77W__B752
Variables_B752__T_A310__T_B77W__B77W
Variables_B752__T_B752
Variables_B752__T_B752__A310
Variables_B752__T_B752__B752
Variables_B752__T_B752__B77W
Variables_B752__T_B752__T_A310__A310
Variables_B752__T_B752__T_A310__B752
Variables_B752__T_B752__T_A310__B77W
Variables_B752__T_B752__T_B752__A310
Variables_B752__T_B752__T_B752__B752
Variables_B752__T_B752__T_B752__B77W
Variables_B752__T_B752__T_B77W__A310
Variables_B752__T_B752__T_B77W__B752
Variables_B752__T_B752__T_B77W__B77W
Variables_B752__T_B77W
Variables_B752__T_B77W__A310
Variables_B752__T_B77W__B752
Variables_B752__T_B77W__B77W
Variables_B752__T_B77W__T_A310__A310
Variables_B752__T_B77W__T_A310__B752
Variables_B752__T_B77W__T_A310__B77W
Variables_B752__T_B77W__T_B752__A310
Variables_B752__T_B77W__T_B752__B752
Variables_B752__T_B77W__T_B752__B77W
Variables_B752__T_B77W__T_B77W__A310
Variables_B752__T_B77W__T_B77W__B752
Variables_B752__T_B77W__T_B77W__B77W
Variables_B77W__0
Variables_B77W__A310
Variables_B77W__B752
Variables_B77W__B77W
Variables_B77W__T_A310
Variables_B77W__T_A310__A310
Variables_B77W__T_A310__B752
Variables_B77W__T_A310__B77W
Variables_B77W__T_A310__T_A310__A310
Variables_B77W__T_A310__T_A310__B752
Variables_B77W__T_A310__T_A310__B77W
Variables_B77W__T_A310__T_B752__A310
Variables_B77W__T_A310__T_B752__B752
Variables_B77W__T_A310__T_B752__B77W
Variables_B77W__T_A310__T_B77W__A310
Variables_B77W__T_A310__T_B77W__B752
Variables_B77W__T_A310__T_B77W__B77W
Variables_B77W__T_B752
Variables_B77W__T_B752__A310
Variables_B77W__T_B752__B752
Variables_B77W__T_B752__B77W
Variables_B77W__T_B752__T_A310__A310
Variables_B77W__T_B752__T_A310__B752
Variables_B77W__T_B752__T_A310__B77W
Variables_B77W__T_B752__T_B752__A310
Variables_B77W__T_B752__T_B752__B752
Variables_B77W__T_B752__T_B752__B77W
Variables_B77W__T_B752__T_B77W__A310
Variables_B77W__T_B752__T_B77W__B752
Variables_B77W__T_B752__T_B77W__B77W
Variables_B77W__T_B77W
Variables_B77W__T_B77W__A310
Variables_B77W__T_B77W__B752
Variables_B77W__T_B77W__B77W
Variables_B77W__T_B77W__T_A310__A310
Variables_B77W__T_B77W__T_A310__B752
Variables_B77W__T_B77W__T_A310__B77W
Variables_B77W__T_B77W__T_B752__A310
Variables_B77W__T_B77W__T_B752__B752
Variables_B77W__T_B77W__T_B752__B77W
Variables_B77W__T_B77W__T_B77W__A310
Variables_B77W__T_B77W__T_B77W__B752
Variables_B77W__T_B77W__T_B77W__B77W
Variables_T_A310__0
Variables_T_A310__T_A310
Variables_T_A310__T_B752
Variables_T_A310__T_B77W
Variables_T_B752__0
Variables_T_B752__T_A310
Variables_T_B752__T_B752
Variables_T_B752__T_B77W
Variables_T_B77W__0
Variables_T_B77W__T_A310
Variables_T_B77W__T_B752
Variables_T_B77W__T_B77W
End
